56061
10, 53, 34, 47, 4, 30, 18, 42, 33, 27, 1, 31, 25, 11, 45, 52, 15, 36, 46, 39, 16, 2, 14, 9, 12, 54, 26, 55, 49, 28, 6, 3, 43, 13, 5, 51, 40, 7, 37, 20, 50, 24, 35, 38, 8, 44, 32, 41, 19, 48, 17, 23, 21, 29, 22
